45491.4
106 2 1 4 3 6 9 5 8 7 10 13 14 16 11 12 15 18 21 17 20 19 22 25 26 28 23 24 27 30 33 29 32 34 31 37 38 40 35 36 39 44 46 43 45 42 41 49 50 52 47 48 51 97 94 96 93 95 92 91 88 89 90 87 98 86 99 84 83 82 85 80 77 78 79 81 100 76 101 74 73 75 72 71 102 69 68 70 67 65 62 66 103 64 63 61 104 59 58 60 57 55 53 56 54 105 0 
